GeneratedTests/Random_11/Random_11_6.tsp
NAME: Random_11_6
TYPE: TSP
DIMENSION: 11
EDGE_WEIGHT_TYPE: EUC_2D
NODE_COORD_SECTION
1 17.735222 14.106076
2 14.727881 8.295883
3 9.285186 21.68371
4 26.853983 24.46606
5 32.841423 22.771038
6 29.748503 13.692109
7 31.430784 28.921534
8 0.63113433 5.7049494
9 0.025601864 8.447738
10 30.839113 24.937546
11 18.673588 3.5868022
EOF
