GeneratedTests/Random_11/Random_11_6.txt
NAME: Random_11_6
TYPE: TSP
DIMENSION: 11
EDGE_WEIGHT_TYPE: EUC_2D
NODE_COORD_SECTION
1 28.705507 13.714491
2 5.905663 10.687549
3 26.658463 28.697025
4 10.739793 1.2455181
5 5.4232264 12.948971
6 3.0596333 12.663991
7 19.89223 12.325085
8 8.7006645 13.696013
9 21.775045 9.823396
10 30.33588 18.772839
11 14.8448105 22.369804
EOF
